NAME: Random_95_4
ELLAPSED_TIME_(ms): 500
TOUR_SIZE: 2098
TOUR_SECTION
0
1
53
60
48
2
90
36
37
74
47
84
8
46
93
85
44
63
7
57
88
75
81
9
6
68
80
33
26
73
20
23
16
77
94
62
39
52
15
69
18
55
4
24
58
42
87
59
21
61
17
72
5
50
28
67
35
29
31
91
43
92
82
38
11
56
41
86
13
64
66
65
76
51
78
54
10
71
12
40
25
45
83
22
89
32
3
34
14
70
30
79
27
19
49
0
EOF
